num_strings=15;
max_length_strings=20;
max_length_median=20;
max_char=4;
strings=[|2,1,2,1,1,1,2,1,2,2,1,1,1,2,1,1,2,2,1,1|2,1,1,1,1,2,1,1,1,2,1,1,2,1,1,2,1,1,2,1|1,1,1,3,1,1,1,1,1,2,1,2,2,2,2,1,1,1,1,1|2,1,2,1,2,1,1,1,2,2,1,2,3,1,1,2,1,1,1,1|1,1,1,1,1,1,1,2,1,1,2,2,1,2,1,1,1,3,2,1|1,1,2,1,1,1,1,1,1,2,1,2,1,2,1,1,1,1,1,1|1,1,1,2,2,1,1,2,1,2,1,1,1,2,1,2,1,1,1,2|2,1,2,1,1,1,2,1,1,1,2,1,1,1,2,1,2,1,1,1|2,1,1,1,1,2,1,1,2,1,1,1,1,1,1,2,2,2,1,1|2,1,2,2,2,1,1,1,1,1,1,1,1,1,1,2,3,1,2,1|1,3,1,2,1,1,3,1,1,1,1,2,1,2,1,1,1,2,1,2|1,1,2,1,3,1,1,1,1,1,1,1,1,1,2,1,2,1,1,1|1,1,1,1,1,1,2,1,1,2,1,1,2,1,1,1,2,2,1,3|1,2,1,2,1,1,2,2,3,1,2,1,1,2,1,1,1,1,2,2|2,1,1,2,2,2,1,2,2,1,1,1,2,2,1,1,1,1,2,1|];
str_length=[20,20,20,20,20,20,20,20,20,20,20,20,20,20,20];
